
  32    4
  10   10   10   10

   0   0   0   0   0   2 2 6 
   4   1   0   1   1   1 3 
   3   0   1   5   4   1 4 
  10   8   5   0   3   2 15 5 
   8   3   0   4   7   2 10 7 
   4   3   4   0   5   1 7 
   8   0   5   2   4   1 8 
   5   2   0   4   5   1 9 
   4   3   0   5   4   2 22 11 
   9   4   4   0   3   2 22 12 
   2   3   3   0   6   1 12 
   4   0   8   6   5   1 13 
   6   5   0   4   2   1 14 
   4   0   3   3   5   2 20 16 
   1   5   0   5   3   2 20 18 
   4   3   6   2   0   1 17 
   6   3   2   1   0   1 18 
   2   3   2   7   0   1 19 
   2   2   2   4   0   1 21 
   7   0   4   5   3   1 21 
   1   6   4   0   3   1 23 
  10   0   3   2   2   1 23 
  10   6   0   5   3   1 24 
   3   2   4   4   0   1 25 
   7   3   4   0   3   2 30 26 
   8  10   4   7   0   1 27 
  10   7   0   4   8   1 28 
   5   0   4   3   4   1 29 
   5   2   5   5   0   1 31 
   2   0   4   4   3   1 31 
   6   4   7   0   6   1 32
   0   0   0   0   0   0 
